1675108
[0, 4, 34, 100, 97, 81, 44, 33, 51, 28, 15, 24, 82, 2, 62, 19, 43, 84, 42, 60, 5, 29, 102, 91, 3, 66, 78, 55, 73, 47, 20, 79, 16, 52, 99, 101, 53, 57, 21, 14, 22, 23, 108, 89, 63, 9, 65, 76, 8, 103, 96, 46, 38, 13, 69, 68, 26, 85, 74, 56, 30, 71, 37, 25, 36, 40, 70, 98, 75, 49, 17, 6, 87, 64, 11, 35, 27, 7, 59, 41, 105, 32, 107, 77, 54, 39, 67, 72, 18, 61, 86, 95, 92, 12, 104, 88, 10, 48, 90, 94, 31, 106, 93, 45, 80, 1, 58, 83, 50, 0]
